c colouring generated by benchmark framework
p edge 1000 449449
v 1 240
v 2 166
v 3 2
v 4 212
v 5 221
v 6 225
v 7 258
v 8 113
v 9 289
v 10 60
v 11 164
v 12 237
v 13 151
v 14 40
v 15 240
v 16 69
v 17 69
v 18 72
v 19 209
v 20 238
v 21 211
v 22 13
v 23 230
v 24 19
v 25 69
v 26 263
v 27 108
v 28 109
v 29 138
v 30 145
v 31 254
v 32 119
v 33 188
v 34 275
v 35 127
v 36 164
v 37 3
v 38 122
v 39 75
v 40 143
v 41 208
v 42 288
v 43 163
v 44 165
v 45 314
v 46 28
v 47 183
v 48 198
v 49 198
v 50 303
v 51 175
v 52 131
v 53 31
v 54 83
v 55 189
v 56 218
v 57 191
v 58 22
v 59 252
v 60 74
v 61 292
v 62 135
v 63 15
v 64 276
v 65 169
v 66 228
v 67 89
v 68 299
v 69 128
v 70 64
v 71 68
v 72 51
v 73 190
v 74 62
v 75 258
v 76 284
v 77 249
v 78 47
v 79 129
v 80 78
v 81 85
v 82 175
v 83 189
v 84 224
v 85 2
v 86 190
v 87 230
v 88 301
v 89 228
v 90 160
v 91 33
v 92 158
v 93 163
v 94 95
v 95 218
v 96 136
v 97 101
v 98 283
v 99 136
v 100 243
v 101 169
v 102 216
v 103 23
v 104 116
v 105 151
v 106 230
v 107 257
v 108 198
v 109 146
v 110 67
v 111 114
v 112 70
v 113 186
v 114 156
v 115 32
v 116 76
v 117 75
v 118 154
v 119 78
v 120 209
v 121 181
v 122 208
v 123 187
v 124 41
v 125 318
v 126 127
v 127 76
v 128 61
v 129 233
v 130 162
v 131 114
v 132 71
v 133 275
v 134 4
v 135 87
v 136 159
v 137 306
v 138 11
v 139 260
v 140 256
v 141 112
v 142 40
v 143 18
v 144 291
v 145 171
v 146 98
v 147 307
v 148 107
v 149 46
v 150 239
v 151 49
v 152 306
v 153 79
v 154 131
v 155 122
v 156 17
v 157 91
v 158 52
v 159 168
v 160 72
v 161 78
v 162 38
v 163 147
v 164 5
v 165 308
v 166 102
v 167 37
v 168 89
v 169 234
v 170 6
v 171 86
v 172 265
v 173 150
v 174 199
v 175 280
v 176 153
v 177 105
v 178 222
v 179 100
v 180 120
v 181 304
v 182 176
v 183 171
v 184 182
v 185 45
v 186 179
v 187 157
v 188 121
v 189 212
v 190 277
v 191 77
v 192 305
v 193 213
v 194 48
v 195 192
v 196 20
v 197 57
v 198 144
v 199 66
v 200 174
v 201 259
v 202 68
v 203 207
v 204 33
v 205 145
v 206 81
v 207 92
v 208 66
v 209 211
v 210 152
v 211 309
v 212 245
v 213 97
v 214 192
v 215 209
v 216 282
v 217 162
v 218 268
v 219 218
v 220 80
v 221 266
v 222 214
v 223 194
v 224 96
v 225 203
v 226 148
v 227 272
v 228 117
v 229 48
v 230 232
v 231 58
v 232 97
v 233 185
v 234 132
v 235 197
v 236 253
v 237 36
v 238 8
v 239 180
v 240 311
v 241 250
v 242 234
v 243 21
v 244 302
v 245 279
v 246 158
v 247 197
v 248 123
v 249 220
v 250 108
v 251 82
v 252 121
v 253 101
v 254 271
v 255 310
v 256 183
v 257 52
v 258 243
v 259 213
v 260 262
v 261 316
v 262 55
v 263 300
v 264 200
v 265 48
v 266 29
v 267 2
v 268 223
v 269 121
v 270 310
v 271 68
v 272 185
v 273 25
v 274 233
v 275 183
v 276 211
v 277 188
v 278 64
v 279 155
v 280 22
v 281 12
v 282 38
v 283 284
v 284 200
v 285 141
v 286 9
v 287 118
v 288 153
v 289 20
v 290 233
v 291 105
v 292 246
v 293 123
v 294 148
v 295 199
v 296 298
v 297 133
v 298 128
v 299 269
v 300 17
v 301 53
v 302 290
v 303 114
v 304 112
v 305 12
v 306 155
v 307 82
v 308 213
v 309 145
v 310 162
v 311 71
v 312 139
v 313 92
v 314 303
v 315 175
v 316 205
v 317 16
v 318 255
v 319 106
v 320 160
v 321 0
v 322 250
v 323 207
v 324 307
v 325 156
v 326 196
v 327 94
v 328 60
v 329 261
v 330 144
v 331 178
v 332 270
v 333 52
v 334 47
v 335 296
v 336 77
v 337 214
v 338 137
v 339 14
v 340 11
v 341 55
v 342 71
v 343 79
v 344 49
v 345 231
v 346 155
v 347 259
v 348 10
v 349 230
v 350 287
v 351 311
v 352 207
v 353 216
v 354 188
v 355 9
v 356 122
v 357 26
v 358 34
v 359 294
v 360 53
v 361 199
v 362 295
v 363 210
v 364 86
v 365 147
v 366 235
v 367 128
v 368 115
v 369 246
v 370 99
v 371 281
v 372 217
v 373 235
v 374 208
v 375 89
v 376 202
v 377 228
v 378 99
v 379 36
v 380 117
v 381 157
v 382 245
v 383 71
v 384 36
v 385 126
v 386 215
v 387 176
v 388 140
v 389 110
v 390 285
v 391 200
v 392 177
v 393 70
v 394 158
v 395 47
v 396 113
v 397 79
v 398 296
v 399 65
v 400 130
v 401 173
v 402 35
v 403 56
v 404 306
v 405 244
v 406 46
v 407 226
v 408 201
v 409 68
v 410 292
v 411 149
v 412 62
v 413 6
v 414 229
v 415 159
v 416 98
v 417 129
v 418 310
v 419 221
v 420 283
v 421 112
v 422 289
v 423 32
v 424 313
v 425 100
v 426 20
v 427 103
v 428 252
v 429 204
v 430 270
v 431 28
v 432 96
v 433 293
v 434 195
v 435 140
v 436 163
v 437 57
v 438 224
v 439 241
v 440 50
v 441 94
v 442 67
v 443 111
v 444 80
v 445 54
v 446 16
v 447 156
v 448 152
v 449 99
v 450 134
v 451 125
v 452 257
v 453 118
v 454 210
v 455 103
v 456 45
v 457 290
v 458 161
v 459 278
v 460 64
v 461 193
v 462 1
v 463 14
v 464 133
v 465 173
v 466 58
v 467 43
v 468 66
v 469 23
v 470 1
v 471 170
v 472 183
v 473 13
v 474 231
v 475 281
v 476 146
v 477 224
v 478 17
v 479 144
v 480 85
v 481 253
v 482 10
v 483 202
v 484 15
v 485 229
v 486 104
v 487 142
v 488 27
v 489 84
v 490 5
v 491 43
v 492 54
v 493 249
v 494 283
v 495 44
v 496 37
v 497 87
v 498 46
v 499 208
v 500 90
v 501 280
v 502 146
v 503 262
v 504 27
v 505 81
v 506 219
v 507 167
v 508 95
v 509 115
v 510 76
v 511 193
v 512 166
v 513 65
v 514 287
v 515 129
v 516 215
v 517 136
v 518 276
v 519 265
v 520 130
v 521 98
v 522 7
v 523 120
v 524 186
v 525 272
v 526 247
v 527 31
v 528 179
v 529 237
v 530 317
v 531 269
v 532 248
v 533 16
v 534 85
v 535 165
v 536 223
v 537 222
v 538 172
v 539 268
v 540 271
v 541 142
v 542 84
v 543 92
v 544 83
v 545 3
v 546 237
v 547 273
v 548 170
v 549 227
v 550 45
v 551 304
v 552 75
v 553 235
v 554 104
v 555 273
v 556 87
v 557 157
v 558 54
v 559 29
v 560 206
v 561 257
v 562 245
v 563 182
v 564 260
v 565 194
v 566 80
v 567 221
v 568 151
v 569 176
v 570 268
v 571 156
v 572 88
v 573 33
v 574 229
v 575 247
v 576 241
v 577 248
v 578 263
v 579 60
v 580 295
v 581 7
v 582 125
v 583 132
v 584 251
v 585 105
v 586 260
v 587 154
v 588 284
v 589 150
v 590 101
v 591 245
v 592 87
v 593 238
v 594 210
v 595 139
v 596 192
v 597 85
v 598 116
v 599 124
v 600 74
v 601 104
v 602 293
v 603 51
v 604 4
v 605 282
v 606 119
v 607 266
v 608 5
v 609 96
v 610 182
v 611 318
v 612 315
v 613 143
v 614 144
v 615 274
v 616 212
v 617 70
v 618 184
v 619 32
v 620 90
v 621 93
v 622 170
v 623 263
v 624 291
v 625 201
v 626 253
v 627 314
v 628 227
v 629 197
v 630 93
v 631 109
v 632 298
v 633 123
v 634 106
v 635 172
v 636 242
v 637 261
v 638 259
v 639 115
v 640 110
v 641 162
v 642 41
v 643 219
v 644 149
v 645 192
v 646 166
v 647 251
v 648 180
v 649 140
v 650 177
v 651 124
v 652 18
v 653 34
v 654 250
v 655 302
v 656 91
v 657 189
v 658 88
v 659 316
v 660 205
v 661 110
v 662 193
v 663 37
v 664 185
v 665 28
v 666 264
v 667 112
v 668 308
v 669 274
v 670 161
v 671 239
v 672 246
v 673 254
v 674 91
v 675 18
v 676 122
v 677 59
v 678 209
v 679 113
v 680 225
v 681 35
v 682 42
v 683 24
v 684 11
v 685 67
v 686 151
v 687 50
v 688 267
v 689 299
v 690 64
v 691 27
v 692 24
v 693 27
v 694 42
v 695 72
v 696 294
v 697 256
v 698 53
v 699 97
v 700 175
v 701 26
v 702 189
v 703 17
v 704 280
v 705 267
v 706 115
v 707 25
v 708 7
v 709 107
v 710 206
v 711 90
v 712 205
v 713 55
v 714 147
v 715 56
v 716 276
v 717 83
v 718 2
v 719 131
v 720 12
v 721 23
v 722 249
v 723 63
v 724 0
v 725 61
v 726 143
v 727 172
v 728 54
v 729 242
v 730 202
v 731 109
v 732 8
v 733 13
v 734 206
v 735 150
v 736 84
v 737 297
v 738 59
v 739 94
v 740 187
v 741 160
v 742 99
v 743 92
v 744 14
v 745 8
v 746 317
v 747 186
v 748 79
v 749 178
v 750 289
v 751 81
v 752 315
v 753 25
v 754 93
v 755 3
v 756 169
v 757 39
v 758 30
v 759 40
v 760 102
v 761 137
v 762 118
v 763 278
v 764 157
v 765 231
v 766 30
v 767 172
v 768 134
v 769 140
v 770 20
v 771 138
v 772 4
v 773 6
v 774 226
v 775 141
v 776 120
v 777 119
v 778 103
v 779 275
v 780 179
v 781 6
v 782 41
v 783 83
v 784 58
v 785 133
v 786 174
v 787 173
v 788 18
v 789 298
v 790 33
v 791 247
v 792 124
v 793 171
v 794 30
v 795 207
v 796 39
v 797 44
v 798 142
v 799 141
v 800 86
v 801 21
v 802 191
v 803 187
v 804 200
v 805 182
v 806 224
v 807 49
v 808 282
v 809 191
v 810 288
v 811 261
v 812 59
v 813 89
v 814 290
v 815 178
v 816 1
v 817 44
v 818 111
v 819 216
v 820 195
v 821 127
v 822 13
v 823 12
v 824 196
v 825 220
v 826 51
v 827 177
v 828 128
v 829 223
v 830 22
v 831 135
v 832 181
v 833 174
v 834 19
v 835 232
v 836 239
v 837 161
v 838 236
v 839 258
v 840 158
v 841 50
v 842 235
v 843 256
v 844 222
v 845 76
v 846 238
v 847 63
v 848 167
v 849 165
v 850 100
v 851 304
v 852 243
v 853 181
v 854 295
v 855 77
v 856 126
v 857 130
v 858 108
v 859 73
v 860 96
v 861 77
v 862 132
v 863 0
v 864 15
v 865 82
v 866 154
v 867 141
v 868 59
v 869 190
v 870 23
v 871 111
v 872 118
v 873 56
v 874 255
v 875 296
v 876 184
v 877 312
v 878 26
v 879 226
v 880 114
v 881 285
v 882 184
v 883 152
v 884 168
v 885 201
v 886 30
v 887 72
v 888 195
v 889 126
v 890 272
v 891 125
v 892 117
v 893 196
v 894 48
v 895 248
v 896 225
v 897 107
v 898 217
v 899 21
v 900 309
v 901 148
v 902 61
v 903 43
v 904 10
v 905 264
v 906 73
v 907 297
v 908 177
v 909 134
v 910 65
v 911 43
v 912 305
v 913 98
v 914 88
v 915 313
v 916 234
v 917 164
v 918 9
v 919 237
v 920 24
v 921 34
v 922 35
v 923 133
v 924 215
v 925 46
v 926 220
v 927 153
v 928 288
v 929 25
v 930 286
v 931 116
v 932 194
v 933 95
v 934 57
v 935 138
v 936 19
v 937 279
v 938 273
v 939 125
v 940 63
v 941 42
v 942 244
v 943 159
v 944 74
v 945 62
v 946 274
v 947 167
v 948 8
v 949 34
v 950 117
v 951 24
v 952 45
v 953 13
v 954 259
v 955 102
v 956 277
v 957 252
v 958 71
v 959 149
v 960 179
v 961 226
v 962 28
v 963 258
v 964 300
v 965 203
v 966 39
v 967 168
v 968 264
v 969 29
v 970 164
v 971 204
v 972 131
v 973 73
v 974 204
v 975 139
v 976 236
v 977 232
v 978 135
v 979 214
v 980 5
v 981 62
v 982 137
v 983 211
v 984 176
v 985 180
v 986 214
v 987 106
v 988 236
v 989 109
v 990 203
v 991 271
v 992 170
v 993 152
v 994 9
v 995 42
v 996 286
v 997 82
v 998 244
v 999 38
v 1000 231
